p wcnf 163 193 194 
1 -26 -62 0 
1 128 -102 0 
1 -108 14 0 
1 -86 -25 0 
1 62 -37 0 
1 -7 161 0 
1 -62 115 0 
1 -69 59 0 
1 -136 5 0 
1 -139 140 0 
1 69 -127 0 
1 41 85 0 
1 -92 128 0 
1 -2 115 0 
1 -29 -78 0 
1 -79 122 0 
1 156 -161 0 
1 -122 160 0 
1 32 -1 0 
1 111 -11 0 
1 -85 57 0 
1 79 -104 0 
1 79 -64 0 
1 -84 -28 0 
1 163 -117 0 
1 -121 -96 0 
1 -96 64 0 
1 -54 2 0 
1 -93 -32 0 
1 24 -156 0 
1 -17 102 0 
1 81 -19 0 
1 88 49 0 
1 156 -92 0 
1 88 105 0 
1 -148 85 0 
1 26 46 0 
1 -116 -157 0 
1 -101 136 0 
1 -1 112 0 
1 142 -60 0 
1 13 85 0 
1 114 87 0 
1 49 -85 0 
1 -69 120 0 
1 -82 54 0 
1 -131 -157 0 
1 -59 -32 0 
1 11 -35 0 
1 -28 69 0 
1 -125 112 0 
1 -88 59 0 
1 112 9 0 
1 -57 25 0 
1 163 -24 0 
1 153 -52 0 
1 -41 136 0 
1 -142 -38 0 
1 126 123 0 
1 27 28 0 
1 -97 122 0 
1 -104 132 0 
1 160 10 0 
1 -48 -125 0 
1 98 -109 0 
1 -163 -18 0 
1 -98 -122 0 
1 -75 59 0 
1 -145 -139 0 
1 134 -116 0 
1 -98 47 0 
1 135 -9 0 
1 7 -121 0 
1 35 44 0 
1 -17 -27 0 
1 -55 106 0 
1 -28 -131 0 
1 153 -121 0 
1 65 122 0 
1 29 82 0 
1 99 25 0 
1 -148 -29 0 
1 -110 163 0 
1 84 -92 0 
1 -40 119 0 
1 145 59 0 
1 76 12 0 
1 -23 153 0 
1 135 85 0 
1 65 45 0 
1 99 -111 0 
1 124 -95 0 
1 -13 40 0 
1 121 -56 0 
1 42 68 0 
1 14 -15 0 
1 -143 148 0 
1 83 100 0 
1 -84 -58 0 
1 -55 124 0 
1 -161 -81 0 
1 30 -17 0 
1 155 33 0 
1 -57 -9 0 
1 73 54 0 
1 45 131 0 
1 -130 -162 0 
1 113 4 0 
1 -56 -153 0 
1 -145 -4 0 
1 -54 -151 0 
1 56 -42 0 
1 82 -162 0 
1 -63 133 0 
1 99 116 0 
1 -54 157 0 
1 3 -153 0 
1 5 94 0 
1 -7 -32 0 
1 -29 74 0 
1 -61 138 0 
1 123 95 0 
1 -89 -109 0 
1 -158 18 0 
1 141 -83 0 
1 -148 -153 0 
1 160 51 0 
1 10 -52 0 
1 78 96 0 
1 -140 105 0 
1 110 160 0 
1 9 137 0 
1 149 -79 0 
1 76 -133 0 
1 -114 -74 0 
1 20 -6 0 
1 -55 108 0 
1 4 91 0 
1 -102 57 0 
1 -150 -143 0 
1 -29 -68 0 
1 78 -95 0 
1 -80 -88 0 
1 16 -81 0 
1 50 -154 0 
1 128 121 0 
1 56 -48 0 
1 -128 53 0 
1 -49 71 0 
1 24 -136 0 
1 -92 -142 0 
1 -116 -19 0 
1 -36 95 0 
1 159 -93 0 
1 -96 -135 0 
1 -162 71 0 
1 150 -31 0 
1 -163 108 0 
1 69 -97 0 
1 82 -52 0 
1 40 -13 0 
1 -121 -62 0 
1 -85 146 0 
1 133 -53 0 
1 -114 5 0 
1 83 150 0 
1 129 -42 0 
1 -38 6 0 
1 104 62 0 
1 123 -55 0 
1 60 2 0 
1 -107 -4 0 
1 141 70 0 
1 144 -103 0 
1 51 -92 0 
1 -140 -30 0 
1 -8 81 0 
1 141 46 0 
1 -7 -157 0 
1 55 -128 0 
1 -2 -70 0 
1 -139 55 0 
1 68 -93 0 
1 79 -71 0 
1 -121 -124 0 
1 -83 -128 0 
1 -11 107 0 
1 138 -66 0 
1 -78 13 0 
1 92 -15 0 
1 -132 71 0 
1 -149 107 0 
1 -67 -25 0 
